unsat
(:cnf-encoding-aux-vars 259
 :elim-unconstrained    3
 :max-memory            21.86
 :memory                19.49
 :nlsat-arith-var       31
 :nlsat-atoms           455
 :nlsat-bool-var        295
 :nlsat-clauses         1356
 :nlsat-conflicts       2
 :nlsat-decisions       3
 :nlsat-propagations    8
 :num-allocs            4752646
 :rlimit-count          530943
 :solve-eqs-elim-vars   157
 :solve-eqs-steps       665
 :time                  0.52
 :total-time            0.54)
